problems/csplib-prob015/SchursLemma-models/noch/O2/lingeling/model_1_1-4-18-solution000001.solution
language Essence 1.3

letting boxes be partition({1, 3, 5, 7, 9, 11, 13, 15, 17}, {2, 8, 16}, {4, 18}, {6, 10, 12, 14})
